letting n_nurses=25
letting n_days=7
letting n_shift_types=4
letting max_covers=16
letting t_covers=87
letting covers=[16,3,0,0,3,16,0,0,15,0,3,0,1,5,0,0,7,1,0,0,6,0,1,0,8,0,2,0]
letting prefes=[1,1,1,2,2,2,2,2,4,1,1,3,1,1,3,1,1,1,1,1,1,1,1,1,1,1,1,2,2,1,3,1,2,1,2,2,1,4,1,1,3,3,1,3,3,1,1,2,1,1,1,1,2,1,3,1,1,1,1,1,2,1,2,2,4,1,1,1,1,3,3,1,1,1,1,1,1,1,1,1,1,1,1,1,2,1,1,1,2,3,2,2,4,2,1,1,1,1,1,1,1,1,2,2,1,2,1,1,2,1,1,1,1,1,1,1,2,1,2,2,1,1,1,1,1,3,3,1,1,1,1,1,1,2,1,1,1,1,1,1,2,4,1,1,1,1,1,1,1,1,4,1,1,3,3,1,1,1,4,2,1,2,1,1,2,4,1,1,1,4,1,1,2,1,2,2,1,1,1,3,1,3,3,1,1,1,1,1,1,2,2,1,1,4,1,1,1,1,3,1,2,1,2,2,1,4,4,1,3,3,3,3,1,1,4,1,1,2,1,1,1,1,3,1,1,1,1,1,2,1,2,2,1,1,1,1,1,3,3,1,1,4,1,1,1,2,1,1,1,1,1,1,1,4,1,2,2,1,2,2,1,1,1,1,1,1,3,1,3,1,1,1,1,2,1,1,1,4,1,2,1,1,1,1,2,2,2,2,4,1,1,1,1,1,3,1,1,3,1,1,2,2,1,2,1,1,1,1,1,1,1,1,1,1,1,1,4,3,1,1,1,3,3,1,1,1,3,1,1,1,1,1,1,1,1,1,2,1,1,2,2,1,2,2,1,1,4,1,1,3,3,1,1,3,1,2,1,2,1,1,2,1,1,2,1,1,1,3,2,1,2,2,1,1,1,3,1,3,3,1,1,1,1,1,1,2,1,1,1,1,1,3,1,4,3,1,2,1,2,2,1,1,1,3,3,3,3,3,3,4,1,1,1,2,1,1,1,4,3,1,1,1,3,1,2,2,2,2,1,1,1,3,3,3,3,3,1,1,1,1,1,2,1,1,1,1,3,1,1,1,1,1,2,1,2,2,1,1,1,1,1,3,1,1,3,1,1,1,1,1,1,1,1,1,1,1,1,1,1,1,2,1,2,2,1,1,1,1,1,3,3,1,1,1,1,1,2,2,1,2,1,1,1,1,1,1,1,1,2,1,2,2,1,1,1,1,1,3,3,1,1,1,1,1,1,2,1,1,1,1,1,1,2,1,1,1,1,1,1,1,1,4,1,1,1,3,3,1,3,1,4,2,1,2,2,1,2,1,1,1,1,1,3,2,1,1,1,1,1,1,1,1,3,3,3,3,1,1,1,1,2,2,1,2,1,1,3,2,1,1,1,1,1,2,1,1,1,1,4,1,1,3,3,1,1,4,1,1,1,2,1,1,1,1,1,1,1,1,1,1,2,1,2,2,1,1,1,1,1,3,1,1,1,1,1,1,2,2,2,2,1,1,1,1,1,1,1,1,2,1,2,2,1,1,4,1,1,1,1,1,1,1,1,1,1,2,2,1,1,1,1,1,1,4,1,1,2,1,2,2,1,1,1,1,1,3,3,1,1,1,1,1,2,2,2,2,1,4,1,1]
letting ub =  189
